units           metal
dimension       3
boundary        p p p 
atom_style      atomic
atom_modify     sort 0 0.0    # turn off sorting of the coordinates
read_data       fcc.data

# initialize system

velocity	all create 300.0 87287 loop geom

pair_style      zero 7.0
pair_coeff	* *  

neighbor        1.0 bin
neigh_modify    every 1 delay 0 check yes

variable	dt equal 0.001
timestep        ${dt}
dump		equil all xyz 100 equil.xyz
dump_modify     equil element Ni Nb

fix             integ all nve
python          post_force_callback file animpiuq.py
fix             2 all python/torch 1 post_force post_force_callback
fix_modify      2 energy yes


thermo      	100
thermo_style 	custom step temp ke pe press pxx pyy pzz lx ly lz 
thermo_modify   norm no flush yes


fix	        emin all box/relax iso 0.0
min_style       cg
min_modify      dmax 0.2
min_modify      line quadratic
minimize        0.0 1.0e-8 1000 10000
unfix		emin

fix             therm   all langevin  300.0 300.0  0.1 699483
fix	        moment  all momentum 100 linear 1 1 1 angular

run 		100

unfix		therm
unfix		moment
fix             therm all temp/berendsen  300.0 300.0 0.1

run		1000
undump		equil


thermo      	100
thermo_style 	custom step temp ke pe press pxx pyy pzz lx ly xy
thermo_modify   norm no flush yes
################# ENERGY MINIZATION ###################################
variable        vir0 equal pxx
variable        vir1 equal pyy
variable        vir2 equal pzz
variable        vir3 equal pxy
variable        vir4 equal pxz
variable        vir5 equal pyz

variable 	 tmp equal "lx"
variable 	 tmpv equal "vol"

variable	 V0 equal ${tmpv}
variable 	 L0 equal ${tmp}

variable 	 strain equal "(lx - v_L0)/v_L0"
variable 	 p1 equal "v_strain"
variable         p2 equal "-pxx*1.0e-4"
variable         p3 equal "-pyy*1.0e-4"
variable 	 p4 equal "-pzz*1.0e-4"
variable         p5 equal "lx"
variable         pot equal "pe"
fix              def1 all print 100 "${p1} ${p2} ${p3} ${p4} ${p5}" file sscurve.dat screen no

fix              stretch all deform 10 x vel 0.2 remap none
run		 20000